synthesiz3/benchmarks/sl/equation_total2.sl
;; Original Synthesiz3 benchmark
(set-logic LIA)

(synth-fun res ((x1 Int) (x2 Int)) Int)

(declare-var x1 Int)
(declare-var x2 Int)
(declare-var u Int)

(assume (= (* 2 u) (+ x1 x2)))

(constraint (= (* 2 (res x1 x2)) (+ x1 x2)))
(check-synth)
